;; translated from ./ctigar/dillig19.c.vmt
;; original benchmark available at: https://es-static.fbk.eu/people/griggio/ic3ia/index.html
;; author: Alberto Griggio <griggio@fbk.eu>
(set-logic HORN)
(declare-fun state (Bool Bool Bool Bool Bool Int Int Int Int) Bool)
(assert (forall ((|.s.2| Bool) (|.s.3| Bool) (|.s.0| Bool) (|.s.1| Bool) (|.s.0.next| Bool) (|.s.1.next| Bool) (|.s.2.next| Bool) (|.s.3.next| Bool) (|.s.4.next| Bool) (|n.next| Int) (|n| Int) (|main.x.next| Int) (|main.x| Int) (|m.next| Int) (|m| Int) (|main.y.next| Int) (|main.y| Int) (|.s.4| Bool)) (=> (let ((.def_20 (not .s.4)))
(let ((.def_17 (not .s.3)))
(let ((.def_14 (not .s.2)))
(let ((.def_10 (not .s.1)))
(let ((.def_12 (and .def_10 .s.0)))
(let ((.def_15 (and .def_12 .def_14)))
(let ((.def_18 (and .def_15 .def_17)))
(let ((.def_21 (and .def_18 .def_20)))
.def_21)))))))) (state |.s.1| |.s.0| |.s.2| |.s.3| |.s.4| |n| |main.x| |m| |main.y|))))
(assert (forall ((|.s.2| Bool) (|.s.3| Bool) (|.s.0| Bool) (|.s.1| Bool) (|.s.0.next| Bool) (|.s.1.next| Bool) (|.s.2.next| Bool) (|.s.3.next| Bool) (|.s.4.next| Bool) (|n.next| Int) (|n| Int) (|main.x.next| Int) (|main.x| Int) (|m.next| Int) (|m| Int) (|main.y.next| Int) (|main.y| Int) (|.s.4| Bool)) (=> (and (state |.s.1| |.s.0| |.s.2| |.s.3| |.s.4| |n| |main.x| |m| |main.y|) (let ((.def_54 (not .s.0)))
(let ((.def_10 (not .s.1)))
(let ((.def_86 (and .def_10 .def_54)))
(let ((.def_14 (not .s.2)))
(let ((.def_149 (and .def_14 .def_86)))
(let ((.def_17 (not .s.3)))
(let ((.def_150 (and .def_17 .def_149)))
(let ((.def_20 (not .s.4)))
(let ((.def_351 (and .def_20 .def_150)))
(let ((.def_352 (not .def_351)))
(let ((.def_63 (not .s.0.next)))
(let ((.def_62 (not .s.1.next)))
(let ((.def_64 (and .def_62 .def_63)))
(let ((.def_61 (not .s.2.next)))
(let ((.def_65 (and .def_61 .def_64)))
(let ((.def_33 (not .s.3.next)))
(let ((.def_66 (and .def_33 .def_65)))
(let ((.def_60 (not .s.4.next)))
(let ((.def_67 (and .def_60 .def_66)))
(let ((.def_39 (= n n.next)))
(let ((.def_68 (and .def_39 .def_67)))
(let ((.def_43 (= main.x main.x.next)))
(let ((.def_69 (and .def_43 .def_68)))
(let ((.def_47 (= m m.next)))
(let ((.def_70 (and .def_47 .def_69)))
(let ((.def_51 (= main.y main.y.next)))
(let ((.def_71 (and .def_51 .def_70)))
(let ((.def_353 (or .def_71 .def_352)))
(let ((.def_77 (and .s.1.next .def_63)))
(let ((.def_252 (and .def_61 .def_77)))
(let ((.def_253 (and .def_33 .def_252)))
(let ((.def_345 (and .def_60 .def_253)))
(let ((.def_344 (= main.x.next 0)))
(let ((.def_346 (and .def_344 .def_345)))
(let ((.def_347 (and .def_39 .def_346)))
(let ((.def_348 (and .def_47 .def_347)))
(let ((.def_349 (and .def_51 .def_348)))
(let ((.def_12 (and .def_10 .s.0)))
(let ((.def_15 (and .def_12 .def_14)))
(let ((.def_18 (and .def_15 .def_17)))
(let ((.def_21 (and .def_18 .def_20)))
(let ((.def_343 (not .def_21)))
(let ((.def_350 (or .def_343 .def_349)))
(let ((.def_354 (and .def_350 .def_353)))
(let ((.def_29 (and .s.0.next .s.1.next)))
(let ((.def_122 (and .def_29 .def_61)))
(let ((.def_123 (and .def_33 .def_122)))
(let ((.def_337 (and .def_60 .def_123)))
(let ((.def_336 (= m main.y.next)))
(let ((.def_338 (and .def_336 .def_337)))
(let ((.def_339 (and .def_39 .def_338)))
(let ((.def_340 (and .def_43 .def_339)))
(let ((.def_341 (and .def_47 .def_340)))
(let ((.def_55 (and .s.1 .def_54)))
(let ((.def_115 (and .def_14 .def_55)))
(let ((.def_116 (and .def_17 .def_115)))
(let ((.def_334 (and .def_20 .def_116)))
(let ((.def_335 (not .def_334)))
(let ((.def_342 (or .def_335 .def_341)))
(let ((.def_355 (and .def_342 .def_354)))
(let ((.def_98 (and .s.0.next .def_62)))
(let ((.def_99 (and .s.2.next .def_98)))
(let ((.def_100 (and .def_33 .def_99)))
(let ((.def_328 (and .def_60 .def_100)))
(let ((.def_329 (and .def_39 .def_328)))
(let ((.def_330 (and .def_43 .def_329)))
(let ((.def_331 (and .def_47 .def_330)))
(let ((.def_332 (and .def_51 .def_331)))
(let ((.def_316 (<= 0 n)))
(let ((.def_22 (and .s.1 .s.0)))
(let ((.def_110 (and .def_14 .def_22)))
(let ((.def_111 (and .def_17 .def_110)))
(let ((.def_315 (and .def_20 .def_111)))
(let ((.def_326 (and .def_315 .def_316)))
(let ((.def_327 (not .def_326)))
(let ((.def_333 (or .def_327 .def_332)))
(let ((.def_356 (and .def_333 .def_355)))
(let ((.def_132 (and .s.2.next .def_64)))
(let ((.def_133 (and .def_33 .def_132)))
(let ((.def_320 (and .def_60 .def_133)))
(let ((.def_321 (and .def_39 .def_320)))
(let ((.def_322 (and .def_43 .def_321)))
(let ((.def_323 (and .def_47 .def_322)))
(let ((.def_324 (and .def_51 .def_323)))
(let ((.def_317 (not .def_316)))
(let ((.def_318 (and .def_315 .def_317)))
(let ((.def_319 (not .def_318)))
(let ((.def_325 (or .def_319 .def_324)))
(let ((.def_357 (and .def_325 .def_356)))
(let ((.def_87 (and .s.2 .def_86)))
(let ((.def_88 (and .def_17 .def_87)))
(let ((.def_312 (and .def_20 .def_88)))
(let ((.def_313 (not .def_312)))
(let ((.def_314 (or .def_71 .def_313)))
(let ((.def_358 (and .def_314 .def_357)))
(let ((.def_31 (and .def_29 .s.2.next)))
(let ((.def_34 (and .def_31 .def_33)))
(let ((.def_306 (and .def_34 .def_60)))
(let ((.def_307 (and .def_39 .def_306)))
(let ((.def_308 (and .def_43 .def_307)))
(let ((.def_309 (and .def_47 .def_308)))
(let ((.def_310 (and .def_51 .def_309)))
(let ((.def_294 (<= 0 m)))
(let ((.def_73 (and .def_12 .s.2)))
(let ((.def_74 (and .def_17 .def_73)))
(let ((.def_292 (and .def_20 .def_74)))
(let ((.def_304 (and .def_292 .def_294)))
(let ((.def_305 (not .def_304)))
(let ((.def_311 (or .def_305 .def_310)))
(let ((.def_359 (and .def_311 .def_358)))
(let ((.def_78 (and .s.2.next .def_77)))
(let ((.def_79 (and .def_33 .def_78)))
(let ((.def_298 (and .def_60 .def_79)))
(let ((.def_299 (and .def_39 .def_298)))
(let ((.def_300 (and .def_43 .def_299)))
(let ((.def_301 (and .def_47 .def_300)))
(let ((.def_302 (and .def_51 .def_301)))
(let ((.def_295 (not .def_294)))
(let ((.def_296 (and .def_292 .def_295)))
(let ((.def_297 (not .def_296)))
(let ((.def_303 (or .def_297 .def_302)))
(let ((.def_360 (and .def_303 .def_359)))
(let ((.def_56 (and .s.2 .def_55)))
(let ((.def_57 (and .def_17 .def_56)))
(let ((.def_289 (and .def_20 .def_57)))
(let ((.def_290 (not .def_289)))
(let ((.def_291 (or .def_71 .def_290)))
(let ((.def_361 (and .def_291 .def_360)))
(let ((.def_209 (* (- 1) m)))
(let ((.def_274 (+ n .def_209)))
(let ((.def_275 (<= 1 .def_274)))
(let ((.def_23 (and .s.2 .def_22)))
(let ((.def_24 (and .def_17 .def_23)))
(let ((.def_273 (and .def_20 .def_24)))
(let ((.def_286 (and .def_273 .def_275)))
(let ((.def_287 (not .def_286)))
(let ((.def_168 (and .def_61 .def_98)))
(let ((.def_179 (and .s.3.next .def_168)))
(let ((.def_180 (and .def_60 .def_179)))
(let ((.def_181 (and .def_39 .def_180)))
(let ((.def_182 (and .def_43 .def_181)))
(let ((.def_183 (and .def_47 .def_182)))
(let ((.def_184 (and .def_51 .def_183)))
(let ((.def_288 (or .def_184 .def_287)))
(let ((.def_362 (and .def_288 .def_361)))
(let ((.def_279 (and .s.3.next .def_65)))
(let ((.def_280 (and .def_60 .def_279)))
(let ((.def_281 (and .def_39 .def_280)))
(let ((.def_282 (and .def_43 .def_281)))
(let ((.def_283 (and .def_47 .def_282)))
(let ((.def_284 (and .def_51 .def_283)))
(let ((.def_276 (not .def_275)))
(let ((.def_277 (and .def_273 .def_276)))
(let ((.def_278 (not .def_277)))
(let ((.def_285 (or .def_278 .def_284)))
(let ((.def_363 (and .def_285 .def_362)))
(let ((.def_269 (and .s.3 .def_149)))
(let ((.def_270 (and .def_20 .def_269)))
(let ((.def_271 (not .def_270)))
(let ((.def_272 (or .def_71 .def_271)))
(let ((.def_364 (and .def_272 .def_363)))
(let ((.def_262 (and .s.3.next .def_252)))
(let ((.def_263 (and .def_60 .def_262)))
(let ((.def_264 (and .def_39 .def_263)))
(let ((.def_265 (and .def_43 .def_264)))
(let ((.def_266 (and .def_47 .def_265)))
(let ((.def_267 (and .def_51 .def_266)))
(let ((.def_246 (* (- 1) main.x)))
(let ((.def_247 (+ n .def_246)))
(let ((.def_248 (<= 1 .def_247)))
(let ((.def_244 (and .def_15 .s.3)))
(let ((.def_245 (and .def_20 .def_244)))
(let ((.def_260 (and .def_245 .def_248)))
(let ((.def_261 (not .def_260)))
(let ((.def_268 (or .def_261 .def_267)))
(let ((.def_365 (and .def_268 .def_364)))
(let ((.def_254 (and .s.4.next .def_253)))
(let ((.def_255 (and .def_39 .def_254)))
(let ((.def_256 (and .def_43 .def_255)))
(let ((.def_257 (and .def_47 .def_256)))
(let ((.def_258 (and .def_51 .def_257)))
(let ((.def_249 (not .def_248)))
(let ((.def_250 (and .def_245 .def_249)))
(let ((.def_251 (not .def_250)))
(let ((.def_259 (or .def_251 .def_258)))
(let ((.def_366 (and .def_259 .def_365)))
(let ((.def_237 (and .s.3.next .def_122)))
(let ((.def_238 (and .def_60 .def_237)))
(let ((.def_234 (* (- 1) main.x.next)))
(let ((.def_235 (+ main.x .def_234)))
(let ((.def_236 (= .def_235 (- 1))))
(let ((.def_239 (and .def_236 .def_238)))
(let ((.def_240 (and .def_39 .def_239)))
(let ((.def_241 (and .def_47 .def_240)))
(let ((.def_242 (and .def_51 .def_241)))
(let ((.def_231 (and .s.3 .def_115)))
(let ((.def_232 (and .def_20 .def_231)))
(let ((.def_233 (not .def_232)))
(let ((.def_243 (or .def_233 .def_242)))
(let ((.def_367 (and .def_243 .def_366)))
(let ((.def_224 (and .s.3.next .def_132)))
(let ((.def_225 (and .def_60 .def_224)))
(let ((.def_226 (and .def_39 .def_225)))
(let ((.def_227 (and .def_43 .def_226)))
(let ((.def_228 (and .def_47 .def_227)))
(let ((.def_229 (and .def_51 .def_228)))
(let ((.def_210 (+ main.x .def_209)))
(let ((.def_211 (<= 1 .def_210)))
(let ((.def_207 (and .s.3 .def_110)))
(let ((.def_208 (and .def_20 .def_207)))
(let ((.def_222 (and .def_208 .def_211)))
(let ((.def_223 (not .def_222)))
(let ((.def_230 (or .def_223 .def_229)))
(let ((.def_368 (and .def_230 .def_367)))
(let ((.def_215 (and .def_31 .s.3.next)))
(let ((.def_216 (and .def_60 .def_215)))
(let ((.def_217 (and .def_39 .def_216)))
(let ((.def_218 (and .def_43 .def_217)))
(let ((.def_219 (and .def_47 .def_218)))
(let ((.def_220 (and .def_51 .def_219)))
(let ((.def_212 (not .def_211)))
(let ((.def_213 (and .def_208 .def_212)))
(let ((.def_214 (not .def_213)))
(let ((.def_221 (or .def_214 .def_220)))
(let ((.def_369 (and .def_221 .def_368)))
(let ((.def_199 (* (- 1) main.y.next)))
(let ((.def_200 (+ main.y .def_199)))
(let ((.def_201 (= .def_200 (- 1))))
(let ((.def_142 (and .s.3.next .def_99)))
(let ((.def_143 (and .def_60 .def_142)))
(let ((.def_202 (and .def_143 .def_201)))
(let ((.def_203 (and .def_39 .def_202)))
(let ((.def_204 (and .def_43 .def_203)))
(let ((.def_205 (and .def_47 .def_204)))
(let ((.def_196 (and .s.3 .def_87)))
(let ((.def_197 (and .def_20 .def_196)))
(let ((.def_198 (not .def_197)))
(let ((.def_206 (or .def_198 .def_205)))
(let ((.def_370 (and .def_206 .def_369)))
(let ((.def_189 (and .s.3.next .def_78)))
(let ((.def_190 (and .def_60 .def_189)))
(let ((.def_191 (and .def_43 .def_190)))
(let ((.def_192 (and .def_39 .def_191)))
(let ((.def_193 (and .def_47 .def_192)))
(let ((.def_194 (and .def_51 .def_193)))
(let ((.def_186 (and .s.3 .def_73)))
(let ((.def_187 (and .def_20 .def_186)))
(let ((.def_188 (not .def_187)))
(let ((.def_195 (or .def_188 .def_194)))
(let ((.def_371 (and .def_195 .def_370)))
(let ((.def_176 (and .s.3 .def_56)))
(let ((.def_177 (and .def_20 .def_176)))
(let ((.def_178 (not .def_177)))
(let ((.def_185 (or .def_178 .def_184)))
(let ((.def_372 (and .def_185 .def_371)))
(let ((.def_169 (and .def_33 .def_168)))
(let ((.def_170 (and .s.4.next .def_169)))
(let ((.def_171 (and .def_39 .def_170)))
(let ((.def_172 (and .def_43 .def_171)))
(let ((.def_173 (and .def_47 .def_172)))
(let ((.def_174 (and .def_51 .def_173)))
(let ((.def_156 (<= main.x m)))
(let ((.def_154 (and .s.3 .def_23)))
(let ((.def_155 (and .def_20 .def_154)))
(let ((.def_166 (and .def_155 .def_156)))
(let ((.def_167 (not .def_166)))
(let ((.def_175 (or .def_167 .def_174)))
(let ((.def_373 (and .def_175 .def_372)))
(let ((.def_160 (and .s.4.next .def_66)))
(let ((.def_161 (and .def_39 .def_160)))
(let ((.def_162 (and .def_43 .def_161)))
(let ((.def_163 (and .def_47 .def_162)))
(let ((.def_164 (and .def_51 .def_163)))
(let ((.def_157 (not .def_156)))
(let ((.def_158 (and .def_155 .def_157)))
(let ((.def_159 (not .def_158)))
(let ((.def_165 (or .def_159 .def_164)))
(let ((.def_374 (and .def_165 .def_373)))
(let ((.def_151 (and .s.4 .def_150)))
(let ((.def_152 (not .def_151)))
(let ((.def_153 (or .def_71 .def_152)))
(let ((.def_375 (and .def_153 .def_374)))
(let ((.def_144 (and .def_39 .def_143)))
(let ((.def_145 (and .def_43 .def_144)))
(let ((.def_146 (and .def_47 .def_145)))
(let ((.def_147 (and .def_51 .def_146)))
(let ((.def_140 (and .def_18 .s.4)))
(let ((.def_141 (not .def_140)))
(let ((.def_148 (or .def_141 .def_147)))
(let ((.def_376 (and .def_148 .def_375)))
(let ((.def_134 (and .s.4.next .def_133)))
(let ((.def_135 (and .def_39 .def_134)))
(let ((.def_136 (and .def_43 .def_135)))
(let ((.def_137 (and .def_47 .def_136)))
(let ((.def_138 (and .def_51 .def_137)))
(let ((.def_118 (<= n main.x)))
(let ((.def_117 (and .s.4 .def_116)))
(let ((.def_130 (and .def_117 .def_118)))
(let ((.def_131 (not .def_130)))
(let ((.def_139 (or .def_131 .def_138)))
(let ((.def_377 (and .def_139 .def_376)))
(let ((.def_124 (and .s.4.next .def_123)))
(let ((.def_125 (and .def_39 .def_124)))
(let ((.def_126 (and .def_43 .def_125)))
(let ((.def_127 (and .def_47 .def_126)))
(let ((.def_128 (and .def_51 .def_127)))
(let ((.def_119 (not .def_118)))
(let ((.def_120 (and .def_117 .def_119)))
(let ((.def_121 (not .def_120)))
(let ((.def_129 (or .def_121 .def_128)))
(let ((.def_378 (and .def_129 .def_377)))
(let ((.def_112 (and .s.4 .def_111)))
(let ((.def_113 (not .def_112)))
(let ((.def_114 (or .def_71 .def_113)))
(let ((.def_379 (and .def_114 .def_378)))
(let ((.def_92 (* (- 1) main.y)))
(let ((.def_93 (+ n .def_92)))
(let ((.def_94 (<= .def_93 (- 1))))
(let ((.def_89 (and .s.4 .def_88)))
(let ((.def_107 (and .def_89 .def_94)))
(let ((.def_108 (not .def_107)))
(let ((.def_36 (and .def_34 .s.4.next)))
(let ((.def_40 (and .def_36 .def_39)))
(let ((.def_44 (and .def_40 .def_43)))
(let ((.def_48 (and .def_44 .def_47)))
(let ((.def_52 (and .def_48 .def_51)))
(let ((.def_109 (or .def_52 .def_108)))
(let ((.def_380 (and .def_109 .def_379)))
(let ((.def_101 (and .s.4.next .def_100)))
(let ((.def_102 (and .def_39 .def_101)))
(let ((.def_103 (and .def_43 .def_102)))
(let ((.def_104 (and .def_47 .def_103)))
(let ((.def_105 (and .def_51 .def_104)))
(let ((.def_95 (not .def_94)))
(let ((.def_96 (and .def_89 .def_95)))
(let ((.def_97 (not .def_96)))
(let ((.def_106 (or .def_97 .def_105)))
(let ((.def_381 (and .def_106 .def_380)))
(let ((.def_80 (and .s.4.next .def_79)))
(let ((.def_81 (and .def_39 .def_80)))
(let ((.def_82 (and .def_43 .def_81)))
(let ((.def_83 (and .def_47 .def_82)))
(let ((.def_84 (and .def_51 .def_83)))
(let ((.def_75 (and .s.4 .def_74)))
(let ((.def_76 (not .def_75)))
(let ((.def_85 (or .def_76 .def_84)))
(let ((.def_382 (and .def_85 .def_381)))
(let ((.def_58 (and .s.4 .def_57)))
(let ((.def_59 (not .def_58)))
(let ((.def_72 (or .def_59 .def_71)))
(let ((.def_383 (and .def_72 .def_382)))
(let ((.def_25 (and .s.4 .def_24)))
(let ((.def_26 (not .def_25)))
(let ((.def_53 (or .def_26 .def_52)))
(let ((.def_384 (and .def_53 .def_383)))
.def_384)))))))))))))))))))))))))))))))))))))))))))))))))))))))))))))))))))))))))))))))))))))))))))))))))))))))))))))))))))))))))))))))))))))))))))))))))))))))))))))))))))))))))))))))))))))))))))))))))))))))))))))))))))))))))))))))))))))))))))))))))))))))))))))))))))))))))))))))))))))))))))))))))))))))))))))))))))))))))))))))))))))))))))))))))))))))))))))))))))) (state |.s.1.next| |.s.0.next| |.s.2.next| |.s.3.next| |.s.4.next| |n.next| |main.x.next| |m.next| |main.y.next|))))
(assert (forall ((|.s.2| Bool) (|.s.3| Bool) (|.s.0| Bool) (|.s.1| Bool) (|.s.0.next| Bool) (|.s.1.next| Bool) (|.s.2.next| Bool) (|.s.3.next| Bool) (|.s.4.next| Bool) (|n.next| Int) (|n| Int) (|main.x.next| Int) (|main.x| Int) (|m.next| Int) (|m| Int) (|main.y.next| Int) (|main.y| Int) (|.s.4| Bool)) (=> (state |.s.1| |.s.0| |.s.2| |.s.3| |.s.4| |n| |main.x| |m| |main.y|) (let ((.def_22 (and .s.1 .s.0)))
(let ((.def_23 (and .s.2 .def_22)))
(let ((.def_17 (not .s.3)))
(let ((.def_24 (and .def_17 .def_23)))
(let ((.def_25 (and .s.4 .def_24)))
(let ((.def_26 (not .def_25)))
.def_26)))))))))
(check-sat)
